problems/csplib-prob056/sonet-models/noch/O2/lingeling/model_6_1-s3ring11-solution000001.solution
language Essence 1.3

letting network be mset({}, {}, {1, 3, 6, 7, 13}, {2, 4, 6, 10, 12}, {3, 5, 6, 8, 9}, {5, 10, 11, 12, 13}, {7, 9, 10})
$ Here is a simple "visualisation" for the value above.
$ 
$ 
$  1  3  6  7 13
$  2  4  6 10 12
$  3  5  6  8  9
$  5 10 11 12 13
$  7  9 10

